
  22   10
  10   10   10   10   10   10   10   10   10   10

   0   0   0   0   0   0   0   0   0   0   0   7 2 3 17 18 19 20 21 
   9   0   0   0   0   0   0   0   0   0  10   3 16 15 4 
   4   0   0   0   0   0  10   0   0   0   0   2 15 5 
   4   0   0  10   0   0   0   0   0   0   0   1 5 
   7   0   0  10   0   0   0   0   0   0   0   1 6 
   2  10   0   0   0   0   0   0   0   0   0   1 7 
   9   0   0   0   0   0  10   0   0   0   0   2 14 8 
   2   0   0   0   0   0   0   0   0  10   0   2 13 9 
   1  10   0   0   0   0   0   0   0   0   0   1 10 
   2   0   0   0   0  10   0   0   0   0   0   1 11 
   9   0   0   0   0   0   0   0   0   0  10   1 12 
   4   0   0  10   0   0   0   0   0   0   0   1 22
   7  10   0   0   0   0   0   0   0   0   0   1 22
   5   0   0  10   0   0   0   0   0   0   0   1 22
   4  10   0   0   0   0   0   0   0   0   0   1 22
   2   0   0   0   0  10   0   0   0   0   0   1 22
   6   0   0  10   0   0   0   0   0   0   0   1 22
   3  10   0   0   0   0   0   0   0   0   0   1 22
   4   0   0   0   0   0  10   0   0   0   0   1 22
   2   0   0   0   0   0   0  10   0   0   0   1 22
   9   0   0   0   0   0   0   0   0   0  10   1 22
   0   0   0   0   0   0   0   0   0   0   0   0 
